6 68 41 38 70 52 64 11 92 54 99 95 97 44 3 13 69 55 19 26 48 31 12 42 71 90 25 39 62 16 50 2 76 89 75 58 86 73 65 79 28 63 85 47 72 56 10 81 36 33 8 17 43 29 84 37 24 46 1 93 22 77 20 5 59 91 53 9 80 87 14 96 88 32 94 82 45 57 74 7 34 78 15 61 40 83 66 49 60 35 4 51 21 0 27 30 23 67 18 98